Traveling Salesman Problem/TSP_generados/Aleatorio1620392600_16.tsp
NAME: Aleatorio1620392600_16.tsp
COMMENT: Randomly generated scenario
TYPE: TSP
DIMENSION: 16
EDGE_WEIGHT_TYPE: ATT
NODE_COORD_SECTION
1 46.33 12.21
2 30.13 38.33
3 5.28 40.23
4 32.1 10.78
5 6.18 39.73
6 7.98 48.78
7 14.27 15.29
8 19.6 28.6
9 20.59 13.87
10 44.68 16.63
11 7.19 37.31
12 36.73 43.61
13 2.17 33.67
14 24.6 1.21
15 6.25 0.11
16 8.6 28.26
