Traveling Salesman Problem/TSP_generados/Aleatorio1620392600_16.opt.tour
NAME: Aleatorio1620392600_16.opt.tour
COMMENT: Optimal solution for Aleatorio1620392600_16 (187.2680695755843)
TYPE: TOUR
DIMENSION: 16
TOUR_SECTION
1 10 12 2 6 3 5 11 13 16 8 9 7 15 14 4
-1
EOF
